708,353
468,298
975,555
368,305
576,551
533,429
737,761
444,369
364,842
727,264
999,88
554,279
178,485
521,325
690,347
740,397
918,369
545,673
681,-134
776,219
761,446
749,273
448,639
817,139
464,-21
561,36
1194,572
914,639
399,794
1051,526
898,833
366,177
196,249
766,379
